; Copyright (c) 2026 The RIINA Authors. All rights reserved.
; Copyright (c) 2026 The RIINA Authors.
; Auto-generated from 02_FORMAL/coq/properties/SN_Closure.v (46 assertions)
; Generated by scripts/generate-full-stack.py
; Module: SN_Closure

(set-logic ALL)
(set-option :produce-models true)

; step_inv (matches Coq: Definition step_inv)
(define-fun step_inv () Prop true)

; SN (matches Coq: Definition SN)
(define-fun SN ((cfg config)) Prop
  true)

; SN_expr (matches Coq: Definition SN_expr)
(define-fun SN_expr ((e expr)) Prop
  true)

; direct_lambda_SN (matches Coq: Definition direct_lambda_SN)
(define-fun direct_lambda_SN ((e1 expr)) Prop
  true)

; family_lambda_SN (matches Coq: Definition family_lambda_SN)
(define-fun family_lambda_SN ((e1 expr)) Prop
  true)

; store_wf (matches Coq: Definition store_wf)
(define-fun store_wf ((st store)) Prop
  true)

; SN_step (matches Coq: Lemma SN_step)
(assert (= true true)) ; SN_step [untranslatable]

; value_not_step (matches Coq: Lemma value_not_step)
(assert (= true true)) ; value_not_step [untranslatable]

; value_SN (matches Coq: Lemma value_SN)
(assert (= true true)) ; value_SN [untranslatable]

; SN_all_reducts (matches Coq: Lemma SN_all_reducts)
(assert (= true true)) ; SN_all_reducts [untranslatable]

; SN_app_value_left_aux (matches Coq: Lemma SN_app_value_left_aux)
(assert (= true true)) ; SN_app_value_left_aux [untranslatable]

; SN_app_value_left (matches Coq: Lemma SN_app_value_left)
(assert (= true true)) ; SN_app_value_left [untranslatable]

; SN_app_aux (matches Coq: Lemma SN_app_aux)
(assert (= true true)) ; SN_app_aux [untranslatable]

; SN_app (matches Coq: Lemma SN_app)
(assert (= true true)) ; SN_app [untranslatable]

; SN_app_value_left_direct_aux (matches Coq: Lemma SN_app_value_left_direct_aux)
(assert (= true true)) ; SN_app_value_left_direct_aux [untranslatable]

; SN_app_value_left_direct (matches Coq: Lemma SN_app_value_left_direct)
(assert (= true true)) ; SN_app_value_left_direct [untranslatable]

; family_lambda_SN_step (matches Coq: Lemma family_lambda_SN_step)
(assert (= true true)) ; family_lambda_SN_step [untranslatable]

; SN_app_value_left_family_aux (matches Coq: Lemma SN_app_value_left_family_aux)
(assert (= true true)) ; SN_app_value_left_family_aux [untranslatable]

; SN_app_family_aux (matches Coq: Lemma SN_app_family_aux)
(assert (= true true)) ; SN_app_family_aux [untranslatable]

; SN_app_family (matches Coq: Lemma SN_app_family)
(assert (= true true)) ; SN_app_family [untranslatable]

; SN_pair_value_left_aux (matches Coq: Lemma SN_pair_value_left_aux)
(assert (= true true)) ; SN_pair_value_left_aux [untranslatable]

; SN_pair_value_left (matches Coq: Lemma SN_pair_value_left)
(assert (= true true)) ; SN_pair_value_left [untranslatable]

; SN_pair_aux (matches Coq: Lemma SN_pair_aux)
(assert (= true true)) ; SN_pair_aux [untranslatable]

; SN_pair (matches Coq: Lemma SN_pair)
(assert (= true true)) ; SN_pair [untranslatable]

; SN_fst_aux (matches Coq: Lemma SN_fst_aux)
(assert (= true true)) ; SN_fst_aux [untranslatable]

; SN_fst (matches Coq: Lemma SN_fst)
(assert (= true true)) ; SN_fst [untranslatable]

; SN_snd_aux (matches Coq: Lemma SN_snd_aux)
(assert (= true true)) ; SN_snd_aux [untranslatable]

; SN_snd (matches Coq: Lemma SN_snd)
(assert (= true true)) ; SN_snd [untranslatable]

; SN_inl_aux (matches Coq: Lemma SN_inl_aux)
(assert (= true true)) ; SN_inl_aux [untranslatable]

; SN_inl (matches Coq: Lemma SN_inl)
(assert (= true true)) ; SN_inl [untranslatable]

; SN_inr_aux (matches Coq: Lemma SN_inr_aux)
(assert (= true true)) ; SN_inr_aux [untranslatable]

; SN_inr (matches Coq: Lemma SN_inr)
(assert (= true true)) ; SN_inr [untranslatable]

; SN_case_aux (matches Coq: Lemma SN_case_aux)
(assert (= true true)) ; SN_case_aux [untranslatable]

; SN_case (matches Coq: Lemma SN_case)
(assert (= true true)) ; SN_case [untranslatable]

; SN_if_aux (matches Coq: Lemma SN_if_aux)
(assert (= true true)) ; SN_if_aux [untranslatable]

; SN_if (matches Coq: Lemma SN_if)
(assert (= true true)) ; SN_if [untranslatable]

; SN_let_aux (matches Coq: Lemma SN_let_aux)
(assert (= true true)) ; SN_let_aux [untranslatable]

; SN_let (matches Coq: Lemma SN_let)
(assert (= true true)) ; SN_let [untranslatable]

; SN_ref_aux (matches Coq: Lemma SN_ref_aux)
(assert (= true true)) ; SN_ref_aux [untranslatable]

; SN_ref (matches Coq: Lemma SN_ref)
(assert (= true true)) ; SN_ref [untranslatable]

; store_wf_nil (matches Coq: Lemma store_wf_nil)
(assert (= true true)) ; store_wf_nil [untranslatable]

; store_lookup_update_eq (matches Coq: Lemma store_lookup_update_eq)
(assert (= true true)) ; store_lookup_update_eq [untranslatable]

; store_lookup_update_neq (matches Coq: Lemma store_lookup_update_neq)
(assert (= true true)) ; store_lookup_update_neq [untranslatable]

; store_update_preserves_wf (matches Coq: Lemma store_update_preserves_wf)
(assert (= true true)) ; store_update_preserves_wf [untranslatable]

; step_preserves_store_wf (matches Coq: Lemma step_preserves_store_wf)
(assert (= true true)) ; step_preserves_store_wf [untranslatable]

; SN_deref_aux (matches Coq: Lemma SN_deref_aux)
(assert (= true true)) ; SN_deref_aux [untranslatable]

; SN_deref (matches Coq: Lemma SN_deref)
(assert (= true true)) ; SN_deref [untranslatable]

; SN_assign_value_left_aux (matches Coq: Lemma SN_assign_value_left_aux)
(assert (= true true)) ; SN_assign_value_left_aux [untranslatable]

; SN_assign_aux (matches Coq: Lemma SN_assign_aux)
(assert (= true true)) ; SN_assign_aux [untranslatable]

; SN_assign (matches Coq: Lemma SN_assign)
(assert (= true true)) ; SN_assign [untranslatable]

; SN_handle_aux (matches Coq: Lemma SN_handle_aux)
(assert (= true true)) ; SN_handle_aux [untranslatable]

; SN_handle (matches Coq: Lemma SN_handle)
(assert (= true true)) ; SN_handle [untranslatable]

; Verify all assertions are satisfiable
(check-sat)
(exit)
